g3 1 1 0	# problem unknown
 23 18 1 0 18 	# vars, constraints, objectives, ranges, eqns
 14 1 0 0 0 0	# nonlinear constrs, objs; ccons: lin, nonlin, nd, nzlb
 0 0	# network constraints: nonlinear, linear
 7 7 7 	# nonlinear vars in constraints, objectives, both
 0 0 0 1	# linear network variables; functions; arith, flags
 0 0 0 0 0 	# discrete variables: binary, integer, nonlinear (b,c,o)
 53 7 	# nonzeros in Jacobian, obj. gradient
 0 0	# max name lengths: constraints, variables
 0 0 0 0 0	# common exprs: b,c,o,c1,o1
C0
o2
n-15625.0
o41
v0
C1
o2
n-15625.0
o41
v1
C2
o2
n-93750.0
o41
v2
C3
o2
n-93750.0
o41
v3
C4
o2
n-93750.0
o41
v4
C5
o2
n-405000.0
o41
v5
C6
o2
n-405000.0
o41
v6
C7
o2
n-1250
o41
v0
C8
o2
n-1250
o41
v1
C9
o2
n-3750
o41
v2
C10
o2
n-3750
o41
v3
C11
o2
n-3750
o41
v4
C12
o2
n-9000
o41
v5
C13
o2
n-9000
o41
v6
C14
n0
C15
n0
C16
n0
C17
n0
O0 0
o2
n-1
o5
o54
7
o2
n1250
o46
v0
o2
n1250
o46
v1
o2
n3750
o46
v2
o2
n3750
o46
v3
o2
n3750
o46
v4
o2
n9000
o46
v5
o2
n9000
o46
v6
n2
x7
0 0.5
1 0.5
2 0.5
3 0.5
4 0.5
5 0.5
6 0.5
r
4 -10000.0
4 -10000.0
4 -40000.0
4 -40000.0
4 -40000.0
4 -129600.0
4 -129600.0
4 -800.0
4 -800.0
4 -1600.0
4 -1600.0
4 -1600.0
4 -2880.0
4 -2880.0
4 100000.0
4 1000.0
4 0.0
4 0.0
b
0 0 1.58
0 0 1.58
0 0 1.58
0 0 1.58
0 0 1.58
0 0 1.58
0 0 1.58
3
3
3
3
3
3
3
3
3
3
3
3
3
3
3
3
k22
2
4
6
8
10
12
14
16
18
20
22
24
26
28
30
33
36
39
42
45
48
51
J0 4
7 -1
8 1
15 -25
0 0
J1 4
8 -1
9 1
16 -25
1 0
J2 4
9 -1
10 1
17 -50
2 0
J3 4
10 -1
11 1
18 -50
3 0
J4 4
11 -1
12 1
19 -50
4 0
J5 4
12 -1
13 1
20 -90
5 0
J6 4
13 -1
14 1
21 -90
6 0
J7 3
15 -1
16 1
0 0
J8 3
16 -1
17 1
1 0
J9 3
17 -1
18 1
2 0
J10 3
18 -1
19 1
3 0
J11 3
19 -1
20 1
4 0
J12 3
20 -1
21 1
5 0
J13 3
21 -1
22 1
6 0
J14 1
14 1
J15 1
22 1
J16 1
7 1
J17 1
15 1
G0 7
0 0
1 0
2 0
3 0
4 0
5 0
6 0
